Minimize
err

Subject To
num_1 - num_2 > 1
num_2 - num_3 > 1
num_3 - num_4 > 1
num_4 - num_5 > 1
num_5 - num_6 > 1
num_6 - num_7 > 1
num_7 - num_8 > 1
num_8 - num_9 > 1
num_9 - num_10 > 1

num_1 >= 3306.8

num_1 - 3306.8
 err <= 3306.8

num_2 >= 3001.2

num_2 - 3001.2
 err <= 3001.2

num_3 >= 1223.4

num_3 - 1223.4
 err <= 1223.4

num_4 >= 1063

num_4 - 1063
 err <= 1063

num_5 >= 913.4

num_5 - 913.4
 err <= 913.4

num_6 >= 760.4

num_6 - 760.4
 err <= 760.4

num_7 >= 609.4

num_7 - 609.4
 err <= 609.4

num_8 >= 457.8

num_8 - 457.8
 err <= 457.8

num_9 >= 304.4

num_9 - 304.4
 err <= 304.4

num_10 >= 153.6

num_10 - 153.6
 err <= 153.6

End